346
1 0 5 59 1 345 1 337 1 344 1 343 1
2 0 5 317 1 202 1 176 1 95 1 147 1
3 0 5 311 1 148 1 144 1 4 1 63 1
4 0 5 82 1 5 1 72 1 3 1 148 1
5 0 5 90 1 4 1 82 1 77 1 148 1
6 0 5 39 1 98 1 78 1 52 1 124 1
7 0 5 276 1 107 1 192 1 300 1 188 1
8 0 5 287 1 89 1 146 1 309 1 79 1
9 0 5 101 1 257 1 320 1 247 1 275 1
10 0 5 74 1 30 1 65 1 115 1 94 1
11 0 5 234 1 310 1 119 1 278 1 292 1
12 0 5 145 1 120 1 22 1 108 1 85 1
13 0 5 235 1 308 1 184 1 272 1 193 1
14 0 5 81 1 27 1 54 1 161 1 113 1
15 0 5 48 1 63 1 156 1 17 1 190 1
16 0 5 204 1 60 1 96 1 87 1 45 1
17 0 5 156 1 250 1 235 1 88 1 15 1
18 0 5 170 1 109 1 195 1 177 1 209 1
19 0 5 95 1 315 1 162 1 317 1 70 1
20 0 5 75 1 133 1 130 1 141 1 46 1
21 0 5 150 1 312 1 211 1 138 1 224 1
22 0 5 12 1 120 1 108 1 145 1 102 1
23 0 5 46 1 141 1 277 1 117 1 194 1
24 0 5 189 1 249 1 296 1 320 1 198 1
25 0 5 122 1 310 1 281 1 44 1 140 1
26 0 5 53 1 143 1 130 1 75 1 55 1
27 0 5 115 1 54 1 81 1 30 1 14 1
28 0 5 284 1 306 1 100 1 258 1 36 1
29 0 5 45 1 136 1 159 1 92 1 16 1
30 0 5 10 1 115 1 27 1 65 1 161 1
31 0 5 198 1 295 1 49 1 229 1 191 1
32 0 5 70 1 163 1 157 1 162 1 315 1
33 0 5 99 1 239 1 236 1 299 1 68 1
34 0 5 309 1 314 1 248 1 67 1 174 1
35 0 5 43 1 242 1 131 1 73 1 99 1
36 0 5 203 1 154 1 253 1 100 1 211 1
37 0 5 286 1 62 1 259 1 232 1 165 1
38 0 5 194 1 188 1 277 1 276 1 232 1
39 0 5 6 1 78 1 143 1 98 1 91 1
40 0 5 311 1 123 1 261 1 72 1 86 1
41 0 5 93 1 255 1 278 1 67 1 314 1
42 0 5 118 1 216 1 197 1 87 1 274 1
43 0 5 35 1 242 1 73 1 99 1 132 1
44 0 5 243 1 105 1 25 1 310 1 140 1
45 0 5 29 1 324 1 136 1 16 1 265 1
46 0 5 141 1 23 1 277 1 133 1 20 1
47 0 5 66 1 163 1 110 1 32 1 70 1
48 0 5 15 1 92 1 60 1 156 1 63 1
49 0 5 295 1 229 1 249 1 191 1 31 1
50 0 5 223 1 186 1 244 1 97 1 160 1
51 0 5 229 1 303 1 247 1 101 1 295 1
52 0 5 98 1 83 1 91 1 152 1 116 1
53 0 5 26 1 114 1 75 1 133 1 130 1
54 0 5 27 1 99 1 65 1 113 1 115 1
55 0 5 76 1 124 1 130 1 143 1 26 1
56 0 5 245 1 240 1 313 1 173 1 304 1
57 0 5 1 1 236 1 288 1 335 1 333 1
58 0 5 239 1 192 1 182 1 242 1 321 1
59 0 5 1 1 337 1 345 1 344 1 343 1
60 0 5 92 1 159 1 16 1 48 1 29 1
61 0 5 130 1 205 1 69 1 132 1 20 1
62 0 5 37 1 259 1 292 1 232 1 286 1
63 0 5 190 1 15 1 144 1 148 1 3 1
64 0 5 79 1 295 1 146 1 135 1 279 1
65 0 5 115 1 10 1 131 1 27 1 30 1
66 0 5 110 1 47 1 163 1 108 1 19 1
67 0 5 255 1 314 1 292 1 174 1 41 1
68 0 5 99 1 33 1 113 1 236 1 106 1
69 0 5 73 1 205 1 94 1 152 1 61 1
70 0 5 32 1 315 1 163 1 162 1 19 1
71 0 5 111 1 179 1 182 1 164 1 307 1
72 0 5 123 1 258 1 4 1 40 1 306 1
73 0 5 69 1 131 1 132 1 94 1 35 1
74 0 5 10 1 134 1 30 1 65 1 152 1
75 0 5 20 1 133 1 130 1 53 1 26 1
76 0 5 124 1 55 1 143 1 130 1 69 1
77 0 5 190 1 90 1 5 1 148 1 63 1
78 0 5 39 1 91 1 116 1 134 1 6 1
79 0 5 146 1 64 1 135 1 139 1 8 1
80 0 5 153 1 176 1 162 1 95 1 2 1
81 0 5 14 1 27 1 161 1 115 1 54 1
82 0 5 90 1 4 1 5 1 219 1 129 1
83 0 5 134 1 116 1 152 1 52 1 91 1
84 0 5 275 1 167 1 101 1 282 1 325 1
85 0 5 151 1 120 1 114 1 102 1 105 1
86 0 5 230 1 241 1 311 1 17 1 316 1
87 0 5 204 1 16 1 265 1 118 1 324 1
88 0 5 250 1 184 1 17 1 121 1 272 1
89 0 5 8 1 309 1 146 1 287 1 79 1
90 0 5 82 1 5 1 219 1 77 1 4 1
91 0 5 116 1 78 1 52 1 83 1 134 1
92 0 5 159 1 48 1 60 1 29 1 136 1
93 0 5 41 1 278 1 255 1 217 1 67 1
94 0 5 152 1 131 1 69 1 73 1 10 1
95 0 5 19 1 315 1 162 1 317 1 80 1
96 0 5 156 1 250 1 16 1 218 1 326 1
97 0 5 1 1 283 1 338 1 337 1 336 1
98 0 5 52 1 6 1 152 1 39 1 91 1
99 0 5 131 1 54 1 33 1 68 1 113 1
100 0 5 222 1 211 1 36 1 284 1 28 1
101 0 5 167 1 275 1 247 1 9 1 303 1
102 0 5 140 1 85 1 22 1 105 1 151 1
103 0 5 219 1 318 1 181 1 313 1 104 1
104 0 5 302 1 318 1 129 1 175 1 103 1
105 0 5 151 1 243 1 44 1 102 1 140 1
106 0 5 57 1 186 1 288 1 236 1 113 1
107 0 5 7 1 188 1 276 1 300 1 286 1
108 0 5 145 1 12 1 22 1 110 1 120 1
109 0 5 195 1 178 1 270 1 18 1 170 1
110 0 5 66 1 47 1 108 1 145 1 163 1
111 0 5 182 1 71 1 239 1 192 1 164 1
112 0 5 267 1 212 1 171 1 173 1 175 1
113 0 5 99 1 54 1 68 1 27 1 106 1
114 0 5 53 1 151 1 120 1 85 1 133 1
115 0 5 27 1 30 1 65 1 10 1 81 1
116 0 5 91 1 134 1 83 1 78 1 52 1
117 0 5 119 1 232 1 234 1 23 1 194 1
118 0 5 42 1 216 1 87 1 204 1 153 1
119 0 5 234 1 117 1 11 1 232 1 310 1
120 0 5 12 1 85 1 114 1 22 1 151 1
121 0 5 252 1 88 1 250 1 184 1 198 1
122 0 5 25 1 140 1 281 1 147 1 102 1
123 0 5 72 1 258 1 306 1 40 1 4 1
124 0 5 76 1 55 1 143 1 98 1 6 1
125 0 5 319 1 201 1 172 1 298 1 260 1
126 0 5 295 1 229 1 249 1 191 1 31 1
127 0 5 79 1 279 1 191 1 146 1 64 1
128 0 5 1 1 236 1 343 1 330 1 345 1
129 0 5 302 1 175 1 104 1 318 1 219 1
130 0 5 61 1 26 1 75 1 55 1 20 1
131 0 5 94 1 99 1 73 1 65 1 35 1
132 0 5 205 1 321 1 73 1 242 1 61 1
133 0 5 75 1 20 1 53 1 114 1 46 1
134 0 5 74 1 83 1 116 1 78 1 152 1
135 0 5 139 1 164 1 146 1 79 1 64 1
136 0 5 157 1 29 1 45 1 324 1 92 1
137 0 5 161 1 285 1 178 1 200 1 270 1
138 0 5 187 1 273 1 21 1 150 1 312 1
139 0 5 135 1 307 1 208 1 164 1 146 1
140 0 5 102 1 122 1 243 1 25 1 105 1
141 0 5 46 1 23 1 277 1 20 1 194 1
142 0 5 301 1 275 1 167 1 51 1 273 1
143 0 5 39 1 26 1 124 1 76 1 55 1
144 0 5 148 1 63 1 3 1 190 1 77 1
145 0 5 108 1 12 1 22 1 120 1 110 1
146 0 5 79 1 135 1 8 1 139 1 89 1
147 0 5 281 1 317 1 202 1 122 1 2 1
148 0 5 144 1 3 1 190 1 63 1 4 1
149 0 5 1 1 283 1 196 1 269 1 97 1
150 0 5 21 1 301 1 154 1 138 1 187 1
151 0 5 85 1 105 1 114 1 102 1 243 1
152 0 5 94 1 83 1 69 1 52 1 98 1
153 0 5 80 1 162 1 176 1 216 1 95 1
154 0 5 36 1 301 1 150 1 100 1 211 1
155 0 5 297 1 206 1 224 1 212 1 304 1
156 0 5 17 1 15 1 96 1 48 1 16 1
157 0 5 136 1 32 1 324 1 45 1 29 1
158 0 5 1 1 345 1 336 1 335 1 334 1
159 0 5 92 1 60 1 29 1 16 1 45 1
160 0 5 223 1 186 1 244 1 177 1 97 1
161 0 5 137 1 81 1 30 1 27 1 14 1
162 0 5 153 1 80 1 315 1 32 1 95 1
163 0 5 47 1 32 1 70 1 315 1 19 1
164 0 5 135 1 139 1 71 1 111 1 307 1
165 0 5 259 1 307 1 208 1 226 1 179 1
166 0 5 1 1 196 1 237 1 238 1 254 1
167 0 5 275 1 101 1 282 1 303 1 84 1
168 0 5 217 1 215 1 291 1 274 1 266 1
169 0 5 316 1 241 1 180 1 230 1 86 1
170 0 5 18 1 177 1 160 1 109 1 50 1
171 0 5 173 1 212 1 112 1 245 1 56 1
172 0 5 185 1 213 1 319 1 260 1 201 1
173 0 5 171 1 181 1 245 1 112 1 56 1
174 0 5 226 1 309 1 292 1 67 1 287 1
175 0 5 129 1 104 1 302 1 112 1 318 1
176 0 5 80 1 2 1 202 1 153 1 317 1
177 0 5 170 1 228 1 233 1 18 1 160 1
178 0 5 200 1 137 1 213 1 270 1 109 1
179 0 5 323 1 71 1 307 1 111 1 165 1
180 0 5 308 1 189 1 296 1 193 1 169 1
181 0 5 313 1 103 1 173 1 318 1 245 1
182 0 5 111 1 239 1 192 1 58 1 71 1
183 0 5 253 1 261 1 227 1 262 1 36 1
184 0 5 250 1 13 1 272 1 235 1 88 1
185 0 5 213 1 172 1 260 1 319 1 125 1
186 0 5 1 1 337 1 344 1 343 1 342 1
187 0 5 138 1 263 1 273 1 312 1 21 1
188 0 5 38 1 107 1 276 1 232 1 194 1
189 0 5 24 1 296 1 249 1 180 1 198 1
190 0 5 77 1 63 1 144 1 148 1 15 1
191 0 5 198 1 49 1 296 1 126 1 127 1
192 0 5 182 1 58 1 7 1 300 1 111 1
193 0 5 272 1 296 1 308 1 198 1 180 1
194 0 5 38 1 277 1 188 1 232 1 117 1
195 0 5 109 1 209 1 178 1 18 1 260 1
196 0 5 166 1 1 1 238 1 269 1 283 1
197 0 5 216 1 291 1 202 1 176 1 274 1
198 0 5 296 1 31 1 191 1 193 1 189 1
199 0 5 289 1 280 1 326 1 221 1 248 1
200 0 5 270 1 178 1 137 1 285 1 268 1
201 0 5 209 1 260 1 319 1 195 1 172 1
202 0 5 2 1 317 1 147 1 176 1 197 1
203 0 5 36 1 306 1 261 1 100 1 28 1
204 0 5 87 1 16 1 265 1 118 1 324 1
205 0 5 132 1 61 1 69 1 321 1 73 1
206 0 5 304 1 155 1 225 1 224 1 297 1
207 0 5 210 1 322 1 257 1 320 1 294 1
208 0 5 307 1 139 1 165 1 287 1 226 1
209 0 5 195 1 201 1 18 1 170 1 177 1
210 0 5 207 1 322 1 257 1 320 1 262 1
211 0 5 100 1 222 1 21 1 312 1 36 1
212 0 5 267 1 112 1 171 1 155 1 297 1
213 0 5 185 1 172 1 260 1 178 1 319 1
214 0 5 273 1 1 1 335 1 334 1 333 1
215 0 5 266 1 274 1 168 1 217 1 246 1
216 0 5 42 1 197 1 118 1 176 1 153 1
217 0 5 168 1 291 1 93 1 215 1 274 1
218 0 5 252 1 96 1 248 1 326 1 250 1
219 0 5 90 1 103 1 313 1 82 1 318 1
220 0 5 1 1 254 1 269 1 343 1 342 1
221 0 5 280 1 246 1 199 1 266 1 248 1
222 0 5 100 1 297 1 211 1 155 1 224 1
223 0 5 1 1 160 1 244 1 50 1 333 1
224 0 5 155 1 312 1 206 1 225 1 297 1
225 0 5 206 1 224 1 304 1 305 1 312 1
226 0 5 174 1 309 1 208 1 165 1 287 1
227 0 5 294 1 183 1 261 1 230 1 262 1
228 0 5 177 1 97 1 170 1 233 1 283 1
229 0 5 51 1 1 1 290 1 333 1 331 1
230 0 5 316 1 86 1 241 1 227 1 294 1
231 0 5 57 1 288 1 14 1 97 1 106 1
232 0 5 117 1 188 1 194 1 38 1 62 1
233 0 5 177 1 170 1 97 1 228 1 18 1
234 0 5 119 1 11 1 117 1 232 1 292 1
235 0 5 13 1 17 1 184 1 250 1 308 1
236 0 5 128 1 57 1 299 1 186 1 33 1
237 0 5 166 1 1 1 196 1 238 1 254 1
238 0 5 196 1 1 1 166 1 269 1 237 1
239 0 5 58 1 182 1 111 1 33 1 192 1
240 0 5 56 1 245 1 206 1 305 1 304 1
241 0 5 86 1 169 1 316 1 230 1 180 1
242 0 5 35 1 43 1 73 1 58 1 132 1
243 0 5 44 1 105 1 140 1 102 1 25 1
244 0 5 223 1 345 1 50 1 160 1 186 1
245 0 5 56 1 240 1 313 1 173 1 171 1
246 0 5 221 1 280 1 266 1 215 1 274 1
247 0 5 303 1 51 1 101 1 167 1 9 1
248 0 5 218 1 34 1 199 1 314 1 221 1
249 0 5 24 1 189 1 290 1 296 1 126 1
250 0 5 88 1 184 1 17 1 96 1 235 1
251 0 5 1 1 166 1 237 1 254 1 330 1
252 0 5 121 1 218 1 88 1 250 1 184 1
253 0 5 183 1 36 1 262 1 261 1 203 1
254 0 5 1 1 166 1 196 1 269 1 220 1
255 0 5 67 1 278 1 41 1 11 1 93 1
256 0 5 1 1 293 1 340 1 339 1 338 1
257 0 5 322 1 320 1 207 1 210 1 9 1
258 0 5 123 1 72 1 306 1 284 1 28 1
259 0 5 165 1 37 1 62 1 286 1 226 1
260 0 5 213 1 185 1 172 1 201 1 319 1
261 0 5 183 1 203 1 306 1 253 1 40 1
262 0 5 282 1 253 1 322 1 257 1 294 1
263 0 5 187 1 271 1 305 1 312 1 225 1
264 0 5 1 1 166 1 237 1 254 1 269 1
265 0 5 324 1 204 1 87 1 16 1 45 1
266 0 5 215 1 274 1 168 1 246 1 217 1
267 0 5 112 1 212 1 297 1 155 1 175 1
268 0 5 285 1 270 1 244 1 50 1 109 1
269 0 5 1 1 196 1 283 1 254 1 238 1
270 0 5 200 1 285 1 178 1 109 1 268 1
271 0 5 273 1 1 1 337 1 335 1 334 1
272 0 5 193 1 184 1 13 1 296 1 308 1
273 0 5 271 1 214 1 138 1 187 1 158 1
274 0 5 215 1 266 1 197 1 168 1 291 1
275 0 5 84 1 167 1 101 1 303 1 9 1
276 0 5 7 1 188 1 107 1 321 1 38 1
277 0 5 194 1 141 1 23 1 38 1 46 1
278 0 5 310 1 255 1 41 1 11 1 93 1
279 0 5 295 1 64 1 127 1 293 1 256 1
280 0 5 221 1 199 1 246 1 289 1 42 1
281 0 5 147 1 122 1 25 1 310 1 291 1
282 0 5 325 1 262 1 167 1 322 1 301 1
283 0 5 1 1 269 1 196 1 149 1 97 1
284 0 5 28 1 306 1 100 1 258 1 36 1
285 0 5 268 1 137 1 270 1 200 1 109 1
286 0 5 37 1 259 1 323 1 107 1 232 1
287 0 5 8 1 309 1 208 1 146 1 135 1
288 0 5 1 1 57 1 335 1 334 1 333 1
289 0 5 326 1 199 1 96 1 280 1 42 1
290 0 5 229 1 295 1 249 1 247 1 191 1
291 0 5 197 1 217 1 168 1 202 1 147 1
292 0 5 174 1 62 1 67 1 226 1 11 1
293 0 5 1 1 256 1 334 1 343 1 342 1
294 0 5 227 1 262 1 316 1 210 1 230 1
295 0 5 1 1 126 1 49 1 279 1 330 1
296 0 5 189 1 198 1 193 1 180 1 249 1
297 0 5 155 1 267 1 212 1 222 1 206 1
298 0 5 319 1 201 1 125 1 209 1 97 1
299 0 5 1 1 335 1 333 1 332 1 329 1
300 0 5 327 1 192 1 107 1 7 1 323 1
301 0 5 150 1 325 1 154 1 282 1 142 1
302 0 5 104 1 129 1 318 1 175 1 219 1
303 0 5 247 1 51 1 167 1 101 1 275 1
304 0 5 206 1 225 1 155 1 305 1 56 1
305 0 5 225 1 304 1 206 1 263 1 271 1
306 0 5 284 1 28 1 203 1 258 1 261 1
307 0 5 208 1 139 1 165 1 71 1 179 1
308 0 5 180 1 13 1 193 1 272 1 241 1
309 0 5 287 1 174 1 89 1 226 1 8 1
310 0 5 25 1 278 1 11 1 44 1 281 1
311 0 5 3 1 40 1 86 1 4 1 72 1
312 0 5 224 1 155 1 21 1 263 1 211 1
313 0 5 181 1 245 1 103 1 56 1 219 1
314 0 5 67 1 34 1 174 1 255 1 41 1
315 0 5 70 1 19 1 95 1 162 1 163 1
316 0 5 230 1 169 1 294 1 241 1 86 1
317 0 5 2 1 202 1 147 1 95 1 176 1
318 0 5 103 1 104 1 302 1 181 1 219 1
319 0 5 125 1 172 1 201 1 260 1 185 1
320 0 5 257 1 207 1 9 1 210 1 322 1
321 0 5 132 1 205 1 276 1 242 1 58 1
322 0 5 210 1 207 1 257 1 262 1 282 1
323 0 5 179 1 327 1 71 1 300 1 286 1
324 0 5 265 1 45 1 136 1 157 1 16 1
325 0 5 282 1 301 1 84 1 322 1 150 1
326 0 5 289 1 96 1 199 1 218 1 280 1
327 0 5 300 1 323 1 192 1 107 1 179 1
328 0 5 329 1 345 1 337 1 344 1 343 1
329 0 5 329 1 345 1 337 1 344 1 343 1
330 0 5 329 1 345 1 337 1 344 1 343 1
331 0 5 329 1 345 1 337 1 344 1 343 1
332 0 5 329 1 345 1 337 1 344 1 343 1
333 0 5 329 1 345 1 337 1 344 1 343 1
334 0 5 329 1 345 1 337 1 344 1 343 1
335 0 5 329 1 345 1 337 1 344 1 343 1
336 0 5 329 1 345 1 337 1 344 1 343 1
337 0 5 329 1 345 1 337 1 344 1 343 1
338 0 5 329 1 345 1 337 1 344 1 343 1
339 0 5 329 1 345 1 337 1 344 1 343 1
340 0 5 329 1 345 1 337 1 344 1 343 1
341 0 5 329 1 345 1 337 1 344 1 343 1
342 0 5 329 1 345 1 337 1 344 1 343 1
343 0 5 329 1 345 1 337 1 344 1 343 1
344 0 5 329 1 345 1 337 1 344 1 343 1
345 0 5 329 1 345 1 337 1 344 1 343 1
346 0 5 329 1 345 1 337 1 344 1 343 1
-1
EOF
